[[50, 18, 24, 49, 3, 44, 32, 40, 12, 17, 26, 67, 76, 75, 68, 2, 6, 51, 33, 16, 63, 23, 56, 43, 41, 42, 64, 22, 73, 62, 28, 61, 21, 74, 30, 48, 47], [36, 69, 71, 60, 70, 20, 37, 5, 15, 57, 29, 45, 4, 34, 46, 52, 27, 13, 54, 19, 8, 35, 7, 53, 14, 59, 66, 11, 65, 38, 10, 58, 72, 31, 39, 9, 25, 55]]